200
1000
299
299
298
297
294
291
291
291
289
288
288
288
287
286
286
285
284
284
282
281
281
280
280
279
279
278
277
276
275
275
273
273
270
268
267
263
261
261
259
259
258
257
256
254
253
251
251
250
250
249
248
243
240
239
239
238
238
238
237
237
236
235
234
233
233
233
232
231
229
228
226
226
225
222
221
221
219
219
219
219
217
216
216
215
214
214
214
214
214
212
211
211
208
204
204
202
202
202
200
199
198
197
197
196
196
196
195
195
194
193
192
190
184
184
180
179
178
177
176
176
175
174
173
171
170
169
168
167
167
167
167
166
166
166
166
165
164
164
163
161
161
159
159
159
155
154
151
151
149
149
149
147
147
144
143
139
137
137
135
134
134
134
133
133
133
132
132
130
129
127
127
124
122
120
120
118
117
115
114
114
114
113
113
113
112
111
111
111
108
108
108
106
106
105
105
103
103
103
103
102
